c FILE /home/rafael/Documents/HappySet/MIHS/inputs/happygen/output/graph_scale_free_k3_p0.5_v50_20241127_082420.txt
c SOURCE This is a scale-free graph formed for the happy graph colouring problem.
c DESCRIPTION It was generated using the problem generator of Rhyd Lewis
c
c GRAPH STATS
c Seed                             = 302897882
c Number of Nodes                  = 50
c Number of colours k              = 3
c Number of pre-assignments        = 25
c Number of links per new node     = 5
c Density                          = 0.191837
c 
c The degrees of nodes 1 to 50, respectively, are as follows 
c [26, 25, 23, 22, 20, 20, 20, 13, 12, 12, 11, 11, 10, 10, 10, 10, 9, 9, 9, 9, 8, 8, 7, 7, 7, 7, 
c  7, 7, 7, 6, 6, 6, 6, 6, 6, 6, 6, 6, 5, 5, 5, 5, 5, 5, 5, 5, 5, 5, 5, 5] 
c  
p edge 50 235 3
e 1 2
e 1 3
e 1 4
e 1 5
e 1 6
e 1 7
e 1 8
e 1 10
e 1 12
e 1 13
e 1 14
e 1 15
e 1 16
e 1 17
e 1 18
e 1 26
e 1 28
e 1 31
e 1 33
e 1 35
e 1 38
e 1 39
e 1 41
e 1 43
e 1 45
e 1 48
e 2 3
e 2 4
e 2 5
e 2 6
e 2 8
e 2 9
e 2 10
e 2 11
e 2 12
e 2 13
e 2 17
e 2 18
e 2 20
e 2 21
e 2 23
e 2 24
e 2 34
e 2 39
e 2 40
e 2 41
e 2 44
e 2 45
e 2 47
e 2 50
e 3 4
e 3 5
e 3 6
e 3 7
e 3 9
e 3 11
e 3 12
e 3 13
e 3 17
e 3 18
e 3 19
e 3 21
e 3 23
e 3 24
e 3 25
e 3 26
e 3 30
e 3 31
e 3 39
e 3 40
e 3 47
e 4 5
e 4 6
e 4 7
e 4 8
e 4 9
e 4 12
e 4 13
e 4 14
e 4 15
e 4 17
e 4 18
e 4 22
e 4 23
e 4 24
e 4 34
e 4 36
e 4 40
e 4 42
e 4 44
e 5 6
e 5 7
e 5 9
e 5 11
e 5 14
e 5 19
e 5 20
e 5 21
e 5 29
e 5 31
e 5 34
e 5 38
e 5 42
e 5 44
e 5 45
e 5 50
e 6 7
e 6 8
e 6 11
e 6 13
e 6 19
e 6 23
e 6 24
e 6 27
e 6 32
e 6 33
e 6 34
e 6 35
e 6 41
e 6 44
e 6 48
e 7 9
e 7 11
e 7 14
e 7 15
e 7 16
e 7 20
e 7 22
e 7 23
e 7 29
e 7 31
e 7 33
e 7 35
e 7 45
e 7 46
e 7 49
e 8 13
e 8 16
e 8 18
e 8 20
e 8 25
e 8 30
e 8 32
e 8 36
e 8 37
e 9 15
e 9 16
e 9 29
e 9 30
e 9 33
e 9 41
e 9 46
e 10 11
e 10 20
e 10 24
e 10 26
e 10 28
e 10 36
e 10 38
e 10 42
e 10 46
e 10 49
e 11 12
e 11 16
e 11 32
e 11 47
e 11 49
e 12 14
e 12 22
e 12 27
e 12 30
e 12 44
e 12 47
e 13 17
e 13 19
e 13 35
e 13 48
e 14 32
e 14 40
e 14 41
e 14 46
e 14 49
e 15 17
e 15 22
e 15 27
e 15 28
e 15 32
e 15 43
e 16 22
e 16 26
e 16 27
e 16 36
e 16 47
e 17 30
e 17 37
e 17 43
e 18 20
e 18 21
e 18 35
e 18 39
e 19 21
e 19 24
e 19 31
e 19 33
e 19 43
e 20 25
e 20 34
e 20 48
e 21 23
e 21 25
e 21 50
e 22 26
e 22 27
e 22 48
e 23 25
e 24 39
e 25 29
e 25 36
e 26 37
e 26 38
e 27 42
e 27 43
e 28 32
e 28 34
e 28 45
e 28 46
e 29 31
e 29 37
e 29 50
e 30 37
e 33 40
e 35 42
e 36 49
e 37 38
e 38 50
n 17 1
n 20 3
n 21 1
n 23 1
n 24 2
n 26 1
n 27 3
n 30 1
n 31 3
n 32 1
n 34 3
n 35 3
n 36 2
n 37 1
n 38 1
n 39 2
n 40 3
n 41 3
n 42 3
n 44 1
n 45 3
n 46 1
n 47 1
n 49 2
n 50 1
